17	4
15	18	17	16	
0	0	0	0	0	3	2	3	4	
5	8	2	2	10	3	5	11	17	
6	9	8	3	8	3	6	17	17	
4	6	3	10	3	3	8	10	12	
3	5	6	3	9	3	7	9	15	
75	9	5	9	3	2	7	9	
250	3	5	4	1	1	13	
225	6	10	8	4	2	14	17	
50	3	4	5	6	1	17	
25	2	3	2	3	1	14	
100	4	6	2	6	1	17	
125	3	2	5	7	1	16	
7	6	6	4	6	1	17	
10	8	9	2	4	1	17	
5	5	8	5	1	1	17	
2	8	9	4	8	3	17	17	17	
0	0	0	0	0	0	
